lp_solve/compute_ilp/benchmarks/lms.lp
Maximize

69 dSta_0 + 61 d0_28 + 216 d1_2.v0 + 216 d1_2.v1 + 34 d1_1.v0 + 34 d1_1.v1 + 97 d2_16 + 49 d3_15.v0 + 49 d3_15.v1 + 100 d4_5.v00 + 100 d4_5.v01 + 70 d4_5.v10 + 70 d4_5.v11 + 53 d4_4.v00 + 23 d4_4.v01 + 53 d4_4.v10 + 23 d4_4.v11 + 2 d5_6.v0 + 2 d5_6.v1 + 2 d5_8.v0 + 2 d5_8.v1 + 103 d6_14.v0 + 70 d6_14.v1 + 2 d7_8.v00 + 2 d7_8.v01 + 2 d7_8.v10 + 2 d7_8.v11 + 103 d7_7.v00 + 52 d7_7.v01 + 103 d7_7.v10 + 52 d7_7.v11 + 3 d8_9.v0 + 3 d8_9.v1 + 35 d8_11.v0 + 5 d8_11.v1 + 97 d9_13.v0 + 97 d9_13.v1 + 35 d10_11.v00 + 35 d10_11.v01 + 5 d10_11.v10 + 5 d10_11.v11 + 67 d10_10.v00 + 37 d10_10.v01 + 67 d10_10.v10 + 37 d10_10.v11 + 2 d11_12.v0 + 2 d11_12.v1 + 101 d11_3.v0 + 98 d11_3.v1 + 67 d13_10.v0 + 67 d13_10.v1 + 35 d13_11.v0 + 5 d13_11.v1 + 103 d14_7.v0 + 103 d14_7.v1 + 2 d14_8.v0 + 2 d14_8.v1 + 53 d15_4.v0 + 53 d15_4.v1 + 100 d15_5.v0 + 70 d15_5.v1 + 52 d16_27 + 130 d17_18.v0 + 130 d17_18.v1 + 53 d17_17.v0 + 23 d17_17.v1 + 31 d18_19 + 62 d18_21 + 103 d19_26 + 61 d20_21.v0 + 61 d20_21.v1 + 103 d20_20.v0 + 52 d20_20.v1 + 3 d21_22 + 65 d21_24 + 97 d22_25 + 64 d23_24.v0 + 64 d23_24.v1 + 67 d23_23.v0 + 37 d23_23.v1 + 101 d24_3 + 2 d24_12 + 67 d25_23 + 64 d25_24 + 103 d26_20 + 61 d26_21 + 53 d27_17 + 130 d27_18 + 34 d28_1 + 216 d28_2


Subject to


\ === tcfg constraints ===
dSta_0 = 1
b0 - d0_28 = 0
b0 - dSta_0 = 0
b1 - d1_2 - d1_1 = 0
b1 - d1_1 - d28_1 = 0
b2 - d2_16 = 0
b2 - d1_2 - d28_2 = 0
b3 - d3_15 = 0
b3 - d11_3 - d24_3 = 0
b4 - d4_5 - d4_4 = 0
b4 - d4_4 - d15_4 = 0
b5 - d5_6 - d5_8 = 0
b5 - d4_5 - d15_5 = 0
b6 - d6_14 = 0
b6 - d5_6 = 0
b7 - d7_8 - d7_7 = 0
b7 - d7_7 - d14_7 = 0
b8 - d8_9 - d8_11 = 0
b8 - d5_8 - d7_8 - d14_8 = 0
b9 - d9_13 = 0
b9 - d8_9 = 0
b10 - d10_11 - d10_10 = 0
b10 - d10_10 - d13_10 = 0
b11 - d11_12 - d11_3 = 0
b11 - d8_11 - d10_11 - d13_11 = 0
b12 - d11_12 - d24_12 = 0
b13 - d13_10 - d13_11 = 0
b13 - d9_13 = 0
b14 - d14_7 - d14_8 = 0
b14 - d6_14 = 0
b15 - d15_4 - d15_5 = 0
b15 - d3_15 = 0
b16 - d16_27 = 0
b16 - d2_16 = 0
b17 - d17_18 - d17_17 = 0
b17 - d17_17 - d27_17 = 0
b18 - d18_19 - d18_21 = 0
b18 - d17_18 - d27_18 = 0
b19 - d19_26 = 0
b19 - d18_19 = 0
b20 - d20_21 - d20_20 = 0
b20 - d20_20 - d26_20 = 0
b21 - d21_22 - d21_24 = 0
b21 - d18_21 - d20_21 - d26_21 = 0
b22 - d22_25 = 0
b22 - d21_22 = 0
b23 - d23_24 - d23_23 = 0
b23 - d23_23 - d25_23 = 0
b24 - d24_3 - d24_12 = 0
b24 - d21_24 - d23_24 - d25_24 = 0
b25 - d25_23 - d25_24 = 0
b25 - d22_25 = 0
b26 - d26_20 - d26_21 = 0
b26 - d19_26 = 0
b27 - d27_17 - d27_18 = 0
b27 - d16_27 = 0
b28 - d28_1 - d28_2 = 0
b28 - d0_28 = 0


\ === context constraints ===

\(a)
d1_2 - d1_2.v0 - d1_2.v1 = 0
d1_1 - d1_1.v0 - d1_1.v1 = 0
d3_15 - d3_15.v0 - d3_15.v1 = 0
d4_5 - d4_5.v00 - d4_5.v01 - d4_5.v10 - d4_5.v11 = 0
d4_4 - d4_4.v00 - d4_4.v01 - d4_4.v10 - d4_4.v11 = 0
d5_6 - d5_6.v0 - d5_6.v1 = 0
d5_8 - d5_8.v0 - d5_8.v1 = 0
d6_14 - d6_14.v0 - d6_14.v1 = 0
d7_8 - d7_8.v00 - d7_8.v01 - d7_8.v10 - d7_8.v11 = 0
d7_7 - d7_7.v00 - d7_7.v01 - d7_7.v10 - d7_7.v11 = 0
d8_9 - d8_9.v0 - d8_9.v1 = 0
d8_11 - d8_11.v0 - d8_11.v1 = 0
d9_13 - d9_13.v0 - d9_13.v1 = 0
d10_11 - d10_11.v00 - d10_11.v01 - d10_11.v10 - d10_11.v11 = 0
d10_10 - d10_10.v00 - d10_10.v01 - d10_10.v10 - d10_10.v11 = 0
d11_12 - d11_12.v0 - d11_12.v1 = 0
d11_3 - d11_3.v0 - d11_3.v1 = 0
d13_10 - d13_10.v0 - d13_10.v1 = 0
d13_11 - d13_11.v0 - d13_11.v1 = 0
d14_7 - d14_7.v0 - d14_7.v1 = 0
d14_8 - d14_8.v0 - d14_8.v1 = 0
d15_4 - d15_4.v0 - d15_4.v1 = 0
d15_5 - d15_5.v0 - d15_5.v1 = 0
d17_18 - d17_18.v0 - d17_18.v1 = 0
d17_17 - d17_17.v0 - d17_17.v1 = 0
d20_21 - d20_21.v0 - d20_21.v1 = 0
d20_20 - d20_20.v0 - d20_20.v1 = 0
d23_24 - d23_24.v0 - d23_24.v1 = 0
d23_23 - d23_23.v0 - d23_23.v1 = 0

\(b)
b1.v0 - d1_2.v0 - d1_1.v0 = 0
b1.v1 - d1_2.v1 - d1_1.v1 = 0
b3.v0 - d3_15.v0 = 0
b3.v1 - d3_15.v1 = 0
b4.v00 - d4_5.v00 - d4_4.v00 = 0
b4.v01 - d4_5.v01 - d4_4.v01 = 0
b4.v10 - d4_5.v10 - d4_4.v10 = 0
b4.v11 - d4_5.v11 - d4_4.v11 = 0
b5.v0 - d5_6.v0 - d5_8.v0 = 0
b5.v1 - d5_6.v1 - d5_8.v1 = 0
b6.v0 - d6_14.v0 = 0
b6.v1 - d6_14.v1 = 0
b7.v00 - d7_8.v00 - d7_7.v00 = 0
b7.v01 - d7_8.v01 - d7_7.v01 = 0
b7.v10 - d7_8.v10 - d7_7.v10 = 0
b7.v11 - d7_8.v11 - d7_7.v11 = 0
b8.v0 - d8_9.v0 - d8_11.v0 = 0
b8.v1 - d8_9.v1 - d8_11.v1 = 0
b9.v0 - d9_13.v0 = 0
b9.v1 - d9_13.v1 = 0
b10.v00 - d10_11.v00 - d10_10.v00 = 0
b10.v01 - d10_11.v01 - d10_10.v01 = 0
b10.v10 - d10_11.v10 - d10_10.v10 = 0
b10.v11 - d10_11.v11 - d10_10.v11 = 0
b11.v0 - d11_12.v0 - d11_3.v0 = 0
b11.v1 - d11_12.v1 - d11_3.v1 = 0
b13.v0 - d13_10.v0 - d13_11.v0 = 0
b13.v1 - d13_10.v1 - d13_11.v1 = 0
b14.v0 - d14_7.v0 - d14_8.v0 = 0
b14.v1 - d14_7.v1 - d14_8.v1 = 0
b15.v0 - d15_4.v0 - d15_5.v0 = 0
b15.v1 - d15_4.v1 - d15_5.v1 = 0
b17.v0 - d17_18.v0 - d17_17.v0 = 0
b17.v1 - d17_18.v1 - d17_17.v1 = 0
b20.v0 - d20_21.v0 - d20_20.v0 = 0
b20.v1 - d20_21.v1 - d20_20.v1 = 0
b23.v0 - d23_24.v0 - d23_23.v0 = 0
b23.v1 - d23_24.v1 - d23_23.v1 = 0

\(c)
b1 - b1.v0 - b1.v1 = 0
b3 - b3.v0 - b3.v1 = 0
b4 - b4.v00 - b4.v01 - b4.v10 - b4.v11 = 0
b5 - b5.v0 - b5.v1 = 0
b6 - b6.v0 - b6.v1 = 0
b7 - b7.v00 - b7.v01 - b7.v10 - b7.v11 = 0
b8 - b8.v0 - b8.v1 = 0
b9 - b9.v0 - b9.v1 = 0
b10 - b10.v00 - b10.v01 - b10.v10 - b10.v11 = 0
b11 - b11.v0 - b11.v1 = 0
b13 - b13.v0 - b13.v1 = 0
b14 - b14.v0 - b14.v1 = 0
b15 - b15.v0 - b15.v1 = 0
b17 - b17.v0 - b17.v1 = 0
b20 - b20.v0 - b20.v1 = 0
b23 - b23.v0 - b23.v1 = 0

\(d)
b1.v0 - d28_1 = 0
b4.v00 - d15_4.v0 = 0
b4.v10 - d15_4.v1 = 0
b7.v00 - d14_7.v0 = 0
b7.v10 - d14_7.v1 = 0
b10.v00 - d13_10.v0 = 0
b10.v10 - d13_10.v1 = 0
b3.v0 - d24_3 = 0
b17.v0 - d27_17 = 0
b20.v0 - d26_20 = 0
b23.v0 - d25_23 = 0

\(e)
b1.v1 - d1_1.v0 - d1_1.v1 = 0
b1.v1 - 1022 d1_1.v0 <= 0
b4.v01 - d4_4.v00 - d4_4.v01 = 0
b4.v01 - 18 d4_4.v00 <= 0
b4.v11 - d4_4.v10 - d4_4.v11 = 0
b4.v11 - 18 d4_4.v10 <= 0
b7.v01 - d7_7.v00 - d7_7.v01 = 0
b7.v01 - 19 d7_7.v00 <= 0
b7.v11 - d7_7.v10 - d7_7.v11 = 0
b7.v11 - 19 d7_7.v10 <= 0
b10.v01 - d10_10.v00 - d10_10.v01 = 0
b10.v01 - 18 d10_10.v00 <= 0
b10.v11 - d10_10.v10 - d10_10.v11 = 0
b10.v11 - 18 d10_10.v10 <= 0
b3.v1 - d11_3.v0 - d11_3.v1 = 0
b3.v1 - 1022 d11_3.v0 <= 0
b17.v1 - d17_17.v0 - d17_17.v1 = 0
b17.v1 - 18 d17_17.v0 <= 0
b20.v1 - d20_20.v0 - d20_20.v1 = 0
b20.v1 - 19 d20_20.v0 <= 0
b23.v1 - d23_23.v0 - d23_23.v1 = 0
b23.v1 - 18 d23_23.v0 <= 0

\(f)
d1_2 - d1_2.v0 - d1_2.v1 = 0
d4_5.v0 - d4_5.v00 - d4_5.v01 = 0
d4_5.v1 - d4_5.v10 - d4_5.v11 = 0
d7_8.v0 - d7_8.v00 - d7_8.v01 = 0
d7_8.v1 - d7_8.v10 - d7_8.v11 = 0
d10_11.v0 - d10_11.v00 - d10_11.v01 = 0
d10_11.v1 - d10_11.v10 - d10_11.v11 = 0
d11_12 - d11_12.v0 - d11_12.v1 = 0
d17_18 - d17_18.v0 - d17_18.v1 = 0
d20_21 - d20_21.v0 - d20_21.v1 = 0
d23_24 - d23_24.v0 - d23_24.v1 = 0

\(g)
b5.v0 - d4_5.v0 - d15_5.v0 = 0
b5.v1 - d4_5.v1 - d15_5.v1 = 0
b6.v0 - d5_6.v0 = 0
b6.v1 - d5_6.v1 = 0
b8.v0 - d5_8.v0 - d7_8.v0 - d14_8.v0 = 0
b8.v1 - d5_8.v1 - d7_8.v1 - d14_8.v1 = 0
b9.v0 - d8_9.v0 = 0
b9.v1 - d8_9.v1 = 0
b11.v0 - d8_11.v0 - d10_11.v0 - d13_11.v0 = 0
b11.v1 - d8_11.v1 - d10_11.v1 - d13_11.v1 = 0
b13.v0 - d9_13.v0 = 0
b13.v1 - d9_13.v1 = 0
b14.v0 - d6_14.v0 = 0
b14.v1 - d6_14.v1 = 0
b15.v0 - d3_15.v0 = 0
b15.v1 - d3_15.v1 = 0

\ === header constraints ===
b0 <= 1
b1 - 1023 b0 <= 0
b1 - 1023 d28_1 <= 0
b4 - 19 b3 <= 0
b4 - 19 d15_4 <= 0
b7 - 20 b3 <= 0
b7 - 20 d14_7 <= 0
b10 - 19 b3 <= 0
b10 - 19 d13_10 <= 0
b3 - 1023 b0 <= 0
b3 - 1023 d24_3 <= 0
b17 - 19 b0 <= 0
b17 - 19 d27_17 <= 0
b20 - 20 b0 <= 0
b20 - 20 d26_20 <= 0
b23 - 19 b0 <= 0
b23 - 19 d25_23 <= 0

Generals

Sta
b0
d0_28
b1
d1_2
d1_1
b2
d2_16
b3
d3_15
b4
d4_5
d4_4
b5
d5_6
d5_8
b6
d6_14
b7
d7_8
d7_7
b8
d8_9
d8_11
b9
d9_13
b10
d10_11
d10_10
b11
d11_12
d11_3
b12
b13
d13_10
d13_11
b14
d14_7
d14_8
b15
d15_4
d15_5
b16
d16_27
b17
d17_18
d17_17
b18
d18_19
d18_21
b19
d19_26
b20
d20_21
d20_20
b21
d21_22
d21_24
b22
d22_25
b23
d23_24
d23_23
b24
d24_3
d24_12
b25
d25_23
d25_24
b26
d26_20
d26_21
b27
d27_17
d27_18
b28
d28_1
d28_2
b0.d0
b1.d0
b2.d0
b2.d1
b2.d2
b2.d3
b2.d4
b3.d0
b3.d1
b3.d2
b3.d3
b4.d0
b4.d1
b5.d0
b7.d0
b7.d1
b7.d2
b10.d0
b10.d1
b11.d0
b13.d0
b13.d1
b14.d0
b14.d1
b14.d2
b15.d0
b15.d1
b16.d0
b16.d1
b16.d2
b16.d3
b17.d0
b17.d1
b18.d0
b20.d0
b20.d1
b20.d2
b23.d0
b23.d1
b24.d0
b25.d0
b25.d1
b26.d0
b26.d1
b26.d2
b27.d0
b27.d1
b28.d0
d0_28
d1_2.v0
d1_2.v1
d1_1.v0
d1_1.v1
d2_16
d3_15.v0
d3_15.v1
d4_5.v00
d4_5.v01
d4_5.v10
d4_5.v11
d4_4.v00
d4_4.v01
d4_4.v10
d4_4.v11
d5_6.v0
d5_6.v1
d5_8.v0
d5_8.v1
d6_14.v0
d6_14.v1
d7_8.v00
d7_8.v01
d7_8.v10
d7_8.v11
d7_7.v00
d7_7.v01
d7_7.v10
d7_7.v11
d8_9.v0
d8_9.v1
d8_11.v0
d8_11.v1
d9_13.v0
d9_13.v1
d10_11.v00
d10_11.v01
d10_11.v10
d10_11.v11
d10_10.v00
d10_10.v01
d10_10.v10
d10_10.v11
d11_12.v0
d11_12.v1
d11_3.v0
d11_3.v1
d13_10.v0
d13_10.v1
d13_11.v0
d13_11.v1
d14_7.v0
d14_7.v1
d14_8.v0
d14_8.v1
d15_4.v0
d15_4.v1
d15_5.v0
d15_5.v1
d16_27
d17_18.v0
d17_18.v1
d17_17.v0
d17_17.v1
d18_19
d18_21
d19_26
d20_21.v0
d20_21.v1
d20_20.v0
d20_20.v1
d21_22
d21_24
d22_25
d23_24.v0
d23_24.v1
d23_23.v0
d23_23.v1
d24_3
d24_12
d25_23
d25_24
d26_20
d26_21
d27_17
d27_18
d28_1
d28_2

End
\ total_cons: 217 	total_vars: 126
