lp_solve/result/lms.res
set_XLI: Successfully loaded './xli_CPLEX'

Value of objective function: 2.90062e+06

Actual values of the variables:
dSta_0                          1
d0_28                           1
d1_2.v0                         0
d1_2.v1                         1
d1_1.v0                         1
d1_1.v1                      1021
d2_16                           1
d3_15.v0                        1
d3_15.v1                     1022
d4_5.v00                        0
d4_5.v01                        1
d4_5.v10                        0
d4_5.v11                     1022
d4_4.v00                        1
d4_4.v01                       17
d4_4.v10                     1022
d4_4.v11                    17374
d5_6.v0                         1
d5_6.v1                      1022
d5_8.v0                         0
d5_8.v1                         0
d6_14.v0                        1
d6_14.v1                     1022
d7_8.v00                        0
d7_8.v01                        1
d7_8.v10                        0
d7_8.v11                     1022
d7_7.v00                        1
d7_7.v01                       18
d7_7.v10                     1022
d7_7.v11                    18396
d8_9.v0                         1
d8_9.v1                      1022
d8_11.v0                        0
d8_11.v1                        0
d9_13.v0                        1
d9_13.v1                     1022
d10_11.v00                      0
d10_11.v01                      1
d10_11.v10                      0
d10_11.v11                   1022
d10_10.v00                      1
d10_10.v01                     17
d10_10.v10                   1022
d10_10.v11                  17374
d11_12.v0                       0
d11_12.v1                       1
d11_3.v0                        1
d11_3.v1                     1021
d13_10.v0                       1
d13_10.v1                    1022
d13_11.v0                       0
d13_11.v1                       0
d14_7.v0                        1
d14_7.v1                     1022
d14_8.v0                        0
d14_8.v1                        0
d15_4.v0                        1
d15_4.v1                     1022
d15_5.v0                        0
d15_5.v1                        0
d16_27                          1
d17_18.v0                       0
d17_18.v1                       1
d17_17.v0                       1
d17_17.v1                      17
d18_19                          1
d18_21                          0
d19_26                          1
d20_21.v0                       0
d20_21.v1                       1
d20_20.v0                       1
d20_20.v1                      18
d21_22                          1
d21_24                          0
d22_25                          1
d23_24.v0                       0
d23_24.v1                       1
d23_23.v0                       1
d23_23.v1                      17
d24_3                           1
d24_12                          0
d25_23                          1
d25_24                          0
d26_20                          1
d26_21                          0
d27_17                          1
d27_18                          0
d28_1                           1
d28_2                           0
b0                              1
b1                           1023
d1_2                            1
d1_1                         1022
b2                              1
b3                           1023
d3_15                        1023
d11_3                        1022
b4                          19437
d4_5                         1023
d4_4                        18414
d15_4                        1023
b5                           1023
d5_6                         1023
d5_8                            0
d15_5                           0
b6                           1023
d6_14                        1023
b7                          20460
d7_8                         1023
d7_7                        19437
d14_7                        1023
b8                           1023
d8_9                         1023
d8_11                           0
d14_8                           0
b9                           1023
d9_13                        1023
b10                         19437
d10_11                       1023
d10_10                      18414
d13_10                       1023
b11                          1023
d11_12                          1
d13_11                          0
b12                             1
b13                          1023
b14                          1023
b15                          1023
b16                             1
b17                            19
d17_18                          1
d17_17                         18
b18                             1
b19                             1
b20                            20
d20_21                          1
d20_20                         19
b21                             1
b22                             1
b23                            19
d23_24                          1
d23_23                         18
b24                             1
b25                             1
b26                             1
b27                             1
b28                             1
b1.v0                           1
b1.v1                        1022
b3.v0                           1
b3.v1                        1022
b4.v00                          1
b4.v01                         18
b4.v10                       1022
b4.v11                      18396
b5.v0                           1
b5.v1                        1022
b6.v0                           1
b6.v1                        1022
b7.v00                          1
b7.v01                         19
b7.v10                       1022
b7.v11                      19418
b8.v0                           1
b8.v1                        1022
b9.v0                           1
b9.v1                        1022
b10.v00                         1
b10.v01                        18
b10.v10                      1022
b10.v11                     18396
b11.v0                          1
b11.v1                       1022
b13.v0                          1
b13.v1                       1022
b14.v0                          1
b14.v1                       1022
b15.v0                          1
b15.v1                       1022
b17.v0                          1
b17.v1                         18
b20.v0                          1
b20.v1                         19
b23.v0                          1
b23.v1                         18
d4_5.v0                         1
d4_5.v1                      1022
d7_8.v0                         1
d7_8.v1                      1022
d10_11.v0                       1
d10_11.v1                    1022
